clingo version 5.6.2
Reading from ...gen_asp_scripts/ijp_expt_cases-1042.dl
Solving...
Progression : [1;inf]
Progression : [2;inf]
UNSATISFIABLE

Models       : 0
Bounds       : [2;*]
Calls        : 1
Time         : 1.613s (Solving: 0.97s 1st Model: 0.00s Unsat: 0.97s)
CPU Time     : 17.239s
Threads      : 32       (Winner: 0)
